100
3533
20
81
45
71
50
24
12
72
72
10
97
31
26
12
54
53
4
7
42
50
13
0 1
0 2
0 3
0 4
0 5
0 6
0 7
0 8
0 9
0 11
0 14
0 15
0 16
0 18
0 19
0 20
0 21
0 23
0 24
0 25
0 26
0 29
0 30
0 31
0 32
0 36
0 37
0 39
0 40
0 42
0 43
0 44
0 45
0 46
0 48
0 49
0 50
0 51
0 52
0 53
0 54
0 55
0 57
0 60
0 61
0 64
0 65
0 66
0 67
0 68
0 69
0 70
0 71
0 72
0 73
0 74
0 75
0 76
0 77
0 78
0 79
0 80
0 81
0 82
0 83
0 84
0 85
0 86
0 87
0 91
0 93
0 94
0 95
0 96
0 98
1 2
1 3
1 4
1 5
1 8
1 9
1 10
1 12
1 14
1 15
1 16
1 21
1 22
1 24
1 25
1 26
1 27
1 28
1 29
1 30
1 31
1 32
1 33
1 34
1 35
1 36
1 37
1 38
1 39
1 41
1 42
1 43
1 44
1 45
1 46
1 47
1 48
1 51
1 52
1 53
1 54
1 55
1 56
1 57
1 58
1 59
1 60
1 61
1 62
1 64
1 65
1 66
1 67
1 68
1 69
1 71
1 72
1 73
1 74
1 77
1 78
1 82
1 86
1 88
1 89
1 90
1 91
1 92
1 93
1 94
1 97
1 98
1 99
2 3
2 4
2 5
2 6
2 7
2 9
2 11
2 12
2 13
2 14
2 15
2 16
2 18
2 20
2 21
2 22
2 23
2 25
2 27
2 29
2 30
2 31
2 32
2 33
2 34
2 36
2 37
2 38
2 39
2 41
2 46
2 48
2 50
2 51
2 53
2 56
2 58
2 60
2 62
2 63
2 64
2 65
2 66
2 67
2 68
2 69
2 73
2 74
2 75
2 77
2 80
2 81
2 82
2 83
2 84
2 85
2 86
2 89
2 90
2 91
2 92
2 94
2 95
2 97
2 98
3 4
3 5
3 6
3 7
3 8
3 9
3 11
3 12
3 13
3 14
3 15
3 16
3 17
3 19
3 21
3 22
3 23
3 24
3 27
3 28
3 29
3 30
3 32
3 33
3 36
3 39
3 40
3 42
3 46
3 47
3 48
3 49
3 50
3 51
3 52
3 53
3 55
3 56
3 57
3 58
3 60
3 61
3 62
3 65
3 68
3 69
3 70
3 71
3 72
3 74
3 75
3 76
3 77
3 79
3 80
3 82
3 85
3 86
3 87
3 88
3 89
3 90
3 94
3 95
3 98
4 5
4 6
4 8
4 9
4 10
4 11
4 12
4 13
4 14
4 15
4 16
4 19
4 21
4 22
4 23
4 24
4 27
4 29
4 32
4 33
4 34
4 35
4 36
4 38
4 39
4 40
4 44
4 45
4 46
4 48
4 49
4 50
4 53
4 54
4 55
4 57
4 58
4 59
4 62
4 63
4 66
4 67
4 68
4 69
4 70
4 71
4 72
4 73
4 77
4 79
4 80
4 81
4 84
4 86
4 87
4 88
4 89
4 91
4 92
4 93
4 94
4 95
4 96
4 97
4 98
4 99
5 6
5 7
5 8
5 11
5 12
5 14
5 15
5 17
5 18
5 19
5 20
5 22
5 27
5 28
5 29
5 30
5 31
5 32
5 35
5 37
5 39
5 40
5 42
5 43
5 44
5 45
5 46
5 47
5 49
5 51
5 53
5 54
5 59
5 60
5 62
5 63
5 66
5 67
5 69
5 70
5 71
5 72
5 74
5 76
5 77
5 78
5 79
5 80
5 81
5 82
5 84
5 85
5 87
5 88
5 89
5 91
5 92
5 93
5 95
5 96
5 98
5 99
6 7
6 8
6 9
6 10
6 11
6 12
6 14
6 15
6 17
6 18
6 19
6 20
6 22
6 23
6 24
6 25
6 26
6 27
6 29
6 31
6 32
6 33
6 34
6 35
6 37
6 38
6 39
6 41
6 43
6 45
6 46
6 47
6 48
6 49
6 50
6 51
6 53
6 55
6 56
6 57
6 58
6 60
6 61
6 63
6 64
6 67
6 68
6 69
6 70
6 72
6 73
6 74
6 75
6 78
6 79
6 80
6 81
6 83
6 84
6 85
6 86
6 87
6 88
6 89
6 91
6 92
6 93
6 98
6 99
7 9
7 11
7 12
7 13
7 14
7 18
7 19
7 20
7 21
7 22
7 24
7 25
7 26
7 28
7 29
7 30
7 32
7 35
7 36
7 37
7 38
7 41
7 42
7 43
7 44
7 45
7 46
7 47
7 49
7 50
7 51
7 54
7 56
7 57
7 58
7 59
7 60
7 61
7 62
7 63
7 65
7 67
7 68
7 69
7 70
7 71
7 72
7 78
7 80
7 81
7 82
7 83
7 84
7 85
7 86
7 89
7 93
7 95
7 96
7 98
8 9
8 11
8 12
8 13
8 15
8 16
8 17
8 18
8 20
8 21
8 22
8 23
8 24
8 26
8 28
8 33
8 34
8 35
8 36
8 37
8 38
8 40
8 41
8 42
8 43
8 44
8 46
8 47
8 48
8 52
8 53
8 54
8 55
8 58
8 59
8 61
8 63
8 66
8 67
8 69
8 70
8 71
8 72
8 73
8 74
8 75
8 77
8 78
8 79
8 80
8 81
8 82
8 84
8 85
8 86
8 87
8 88
8 89
8 90
8 91
8 92
8 93
8 94
8 95
8 96
8 97
8 99
9 11
9 12
9 13
9 14
9 16
9 17
9 18
9 19
9 20
9 21
9 22
9 24
9 25
9 26
9 27
9 28
9 29
9 30
9 32
9 33
9 34
9 35
9 36
9 37
9 38
9 40
9 41
9 42
9 43
9 45
9 46
9 48
9 49
9 51
9 52
9 53
9 55
9 56
9 58
9 59
9 60
9 61
9 62
9 63
9 64
9 69
9 70
9 73
9 74
9 77
9 79
9 80
9 82
9 83
9 84
9 86
9 87
9 88
9 89
9 92
9 93
9 94
9 95
9 97
9 99
10 11
10 13
10 14
10 18
10 19
10 20
10 21
10 22
10 25
10 26
10 27
10 28
10 29
10 30
10 31
10 32
10 33
10 35
10 38
10 39
10 41
10 42
10 43
10 44
10 46
10 47
10 49
10 53
10 55
10 56
10 57
10 58
10 59
10 61
10 62
10 63
10 64
10 66
10 70
10 71
10 72
10 73
10 74
10 76
10 77
10 78
10 79
10 80
10 81
10 82
10 83
10 85
10 86
10 88
10 89
10 90
10 93
10 94
10 96
10 98
11 12
11 15
11 17
11 18
11 22
11 24
11 25
11 26
11 29
11 33
11 34
11 35
11 36
11 37
11 38
11 39
11 40
11 42
11 43
11 45
11 46
11 47
11 49
11 50
11 51
11 52
11 53
11 54
11 55
11 57
11 59
11 60
11 61
11 63
11 64
11 65
11 66
11 67
11 68
11 69
11 72
11 73
11 74
11 75
11 76
11 78
11 83
11 85
11 86
11 87
11 88
11 89
11 90
11 92
11 93
11 94
11 96
11 97
11 99
12 13
12 14
12 16
12 17
12 18
12 19
12 20
12 21
12 24
12 25
12 27
12 28
12 29
12 32
12 33
12 34
12 36
12 38
12 39
12 40
12 41
12 43
12 44
12 45
12 47
12 48
12 51
12 52
12 53
12 54
12 55
12 56
12 57
12 58
12 59
12 60
12 61
12 63
12 64
12 65
12 66
12 67
12 68
12 69
12 72
12 73
12 74
12 78
12 81
12 82
12 83
12 84
12 86
12 88
12 89
12 90
12 91
12 92
12 93
12 94
12 95
12 96
12 97
12 98
12 99
13 14
13 15
13 16
13 17
13 18
13 19
13 21
13 23
13 26
13 28
13 29
13 30
13 31
13 32
13 33
13 35
13 36
13 37
13 38
13 39
13 40
13 41
13 42
13 43
13 46
13 47
13 48
13 49
13 51
13 52
13 53
13 54
13 55
13 57
13 59
13 63
13 64
13 67
13 68
13 69
13 72
13 73
13 74
13 75
13 77
13 78
13 79
13 80
13 82
13 83
13 85
13 86
13 87
13 88
13 89
13 91
13 92
13 94
13 95
13 96
13 98
14 15
14 16
14 17
14 19
14 21
14 22
14 24
14 25
14 26
14 28
14 29
14 30
14 31
14 32
14 34
14 35
14 37
14 39
14 40
14 41
14 42
14 43
14 44
14 45
14 46
14 48
14 49
14 50
14 51
14 52
14 53
14 54
14 55
14 56
14 57
14 58
14 59
14 62
14 63
14 64
14 66
14 67
14 68
14 69
14 70
14 71
14 74
14 75
14 76
14 77
14 78
14 80
14 81
14 83
14 84
14 85
14 86
14 87
14 89
14 91
14 94
14 95
14 96
14 99
15 16
15 17
15 18
15 19
15 20
15 21
15 25
15 26
15 27
15 28
15 29
15 30
15 31
15 32
15 34
15 35
15 36
15 37
15 38
15 39
15 41
15 44
15 46
15 47
15 48
15 51
15 52
15 53
15 54
15 55
15 56
15 57
15 58
15 59
15 61
15 63
15 64
15 65
15 67
15 70
15 71
15 75
15 76
15 78
15 81
15 82
15 83
15 84
15 87
15 89
15 90
15 91
15 92
15 94
15 97
15 98
15 99
16 17
16 18
16 21
16 22
16 25
16 26
16 27
16 28
16 29
16 30
16 31
16 32
16 33
16 34
16 35
16 37
16 38
16 40
16 41
16 42
16 43
16 48
16 49
16 50
16 51
16 52
16 54
16 55
16 56
16 57
16 58
16 60
16 61
16 63
16 64
16 66
16 68
16 69
16 72
16 73
16 74
16 76
16 78
16 79
16 81
16 82
16 84
16 85
16 86
16 87
16 88
16 89
16 90
16 92
16 94
16 96
16 97
16 98
17 18
17 19
17 20
17 21
17 22
17 25
17 26
17 27
17 28
17 30
17 31
17 32
17 33
17 34
17 36
17 37
17 38
17 39
17 44
17 46
17 47
17 48
17 49
17 53
17 54
17 55
17 56
17 58
17 59
17 60
17 62
17 63
17 64
17 65
17 66
17 67
17 70
17 71
17 73
17 75
17 76
17 77
17 78
17 79
17 80
17 81
17 82
17 83
17 85
17 86
17 87
17 88
17 89
17 90
17 91
17 93
17 95
17 97
17 98
18 19
18 21
18 22
18 23
18 24
18 25
18 27
18 29
18 31
18 32
18 34
18 36
18 37
18 39
18 40
18 41
18 42
18 43
18 44
18 45
18 48
18 50
18 51
18 53
18 54
18 55
18 56
18 58
18 60
18 61
18 62
18 63
18 64
18 65
18 66
18 68
18 69
18 70
18 71
18 73
18 75
18 76
18 77
18 78
18 79
18 81
18 83
18 84
18 86
18 87
18 88
18 89
18 90
18 92
18 93
18 96
18 97
18 98
18 99
19 20
19 21
19 22
19 23
19 25
19 26
19 28
19 29
19 31
19 32
19 33
19 34
19 35
19 37
19 41
19 42
19 44
19 45
19 46
19 47
19 48
19 49
19 50
19 51
19 52
19 54
19 55
19 56
19 57
19 58
19 60
19 61
19 63
19 65
19 68
19 69
19 70
19 71
19 73
19 75
19 76
19 77
19 78
19 79
19 80
19 81
19 82
19 84
19 85
19 86
19 89
19 90
19 91
19 92
19 93
19 94
19 96
19 97
19 98
19 99
20 21
20 22
20 23
20 27
20 28
20 29
20 30
20 33
20 35
20 36
20 37
20 38
20 39
20 40
20 42
20 43
20 44
20 45
20 47
20 48
20 51
20 52
20 53
20 54
20 55
20 56
20 58
20 59
20 62
20 63
20 64
20 67
20 68
20 70
20 71
20 73
20 74
20 75
20 76
20 80
20 81
20 82
20 84
20 85
20 86
20 87
20 88
20 90
20 91
20 95
20 96
20 97
20 98
20 99
21 23
21 24
21 25
21 26
21 27
21 28
21 29
21 30
21 31
21 33
21 34
21 35
21 36
21 37
21 39
21 40
21 41
21 43
21 45
21 46
21 47
21 48
21 50
21 51
21 53
21 54
21 55
21 56
21 57
21 58
21 60
21 61
21 62
21 63
21 64
21 68
21 70
21 71
21 72
21 73
21 76
21 77
21 78
21 79
21 80
21 81
21 84
21 86
21 87
21 89
21 90
21 91
21 92
21 93
21 94
21 96
21 97
21 99
22 23
22 24
22 25
22 26
22 27
22 28
22 29
22 33
22 34
22 35
22 37
22 38
22 40
22 41
22 42
22 43
22 44
22 45
22 46
22 47
22 48
22 50
22 51
22 52
22 53
22 55
22 56
22 58
22 59
22 61
22 64
22 65
22 66
22 69
22 70
22 72
22 74
22 75
22 76
22 77
22 78
22 80
22 81
22 82
22 83
22 85
22 86
22 88
22 91
22 93
22 94
22 95
22 96
22 97
22 99
23 25
23 27
23 29
23 30
23 31
23 32
23 33
23 34
23 35
23 37
23 38
23 39
23 42
23 45
23 46
23 47
23 49
23 50
23 51
23 53
23 55
23 57
23 58
23 59
23 60
23 61
23 62
23 63
23 65
23 66
23 67
23 68
23 70
23 72
23 73
23 74
23 75
23 76
23 77
23 78
23 79
23 81
23 82
23 83
23 84
23 86
23 87
23 88
23 89
23 90
23 92
23 93
23 94
23 95
23 96
23 97
23 98
23 99
24 25
24 26
24 27
24 28
24 29
24 30
24 32
24 33
24 34
24 35
24 36
24 37
24 41
24 42
24 44
24 45
24 46
24 47
24 48
24 51
24 53
24 54
24 55
24 56
24 57
24 58
24 60
24 61
24 62
24 66
24 67
24 68
24 69
24 70
24 71
24 73
24 74
24 77
24 78
24 81
24 83
24 85
24 87
24 88
24 90
24 92
24 93
24 94
24 95
24 96
24 98
25 26
25 29
25 31
25 32
25 33
25 34
25 35
25 36
25 37
25 38
25 39
25 41
25 42
25 43
25 44
25 46
25 47
25 51
25 52
25 53
25 54
25 55
25 58
25 59
25 60
25 61
25 64
25 65
25 66
25 67
25 68
25 70
25 71
25 72
25 73
25 77
25 78
25 79
25 80
25 81
25 83
25 85
25 86
25 88
25 90
25 93
25 94
25 96
25 97
25 98
26 27
26 28
26 30
26 33
26 37
26 38
26 40
26 41
26 42
26 46
26 47
26 48
26 49
26 50
26 51
26 52
26 53
26 55
26 56
26 57
26 58
26 62
26 64
26 65
26 66
26 67
26 68
26 69
26 70
26 71
26 73
26 74
26 79
26 80
26 82
26 83
26 84
26 87
26 88
26 89
26 90
26 92
26 93
26 94
26 96
26 97
26 98
26 99
27 28
27 29
27 31
27 32
27 34
27 35
27 36
27 37
27 38
27 40
27 41
27 43
27 44
27 45
27 46
27 47
27 48
27 49
27 50
27 52
27 53
27 54
27 55
27 56
27 57
27 58
27 59
27 60
27 61
27 62
27 65
27 68
27 70
27 73
27 75
27 76
27 77
27 79
27 80
27 81
27 84
27 87
27 88
27 89
27 90
27 91
27 92
27 93
27 95
27 97
27 98
27 99
28 31
28 32
28 34
28 36
28 40
28 41
28 42
28 44
28 45
28 46
28 47
28 49
28 50
28 51
28 52
28 53
28 54
28 56
28 57
28 58
28 59
28 60
28 61
28 62
28 63
28 66
28 67
28 69
28 72
28 73
28 74
28 75
28 77
28 78
28 80
28 81
28 82
28 84
28 87
28 88
28 90
28 91
28 92
28 94
28 95
28 96
28 97
28 98
28 99
29 30
29 31
29 32
29 33
29 35
29 37
29 38
29 39
29 41
29 42
29 45
29 46
29 47
29 49
29 52
29 54
29 55
29 56
29 57
29 58
29 59
29 60
29 61
29 62
29 63
29 64
29 65
29 67
29 68
29 69
29 70
29 72
29 74
29 76
29 78
29 79
29 81
29 84
29 86
29 87
29 88
29 90
29 92
29 93
29 94
29 95
29 98
29 99
30 31
30 32
30 33
30 35
30 36
30 39
30 40
30 41
30 42
30 43
30 44
30 45
30 48
30 50
30 51
30 52
30 53
30 54
30 55
30 56
30 58
30 59
30 61
30 62
30 63
30 64
30 66
30 69
30 70
30 71
30 74
30 77
30 78
30 79
30 80
30 81
30 84
30 86
30 87
30 88
30 89
30 90
30 91
30 92
30 94
30 96
30 97
30 98
30 99
31 32
31 34
31 35
31 36
31 37
31 39
31 40
31 42
31 43
31 44
31 45
31 46
31 47
31 48
31 50
31 51
31 52
31 53
31 54
31 55
31 56
31 57
31 60
31 61
31 62
31 63
31 65
31 68
31 69
31 70
31 72
31 74
31 75
31 76
31 78
31 80
31 81
31 82
31 83
31 85
31 86
31 87
31 88
31 89
31 90
31 91
31 93
31 94
31 95
31 96
31 97
31 98
32 33
32 35
32 36
32 37
32 38
32 39
32 41
32 42
32 43
32 44
32 45
32 46
32 47
32 48
32 49
32 51
32 52
32 53
32 54
32 55
32 56
32 57
32 59
32 60
32 61
32 62
32 64
32 65
32 66
32 67
32 69
32 70
32 72
32 73
32 74
32 75
32 76
32 77
32 78
32 79
32 80
32 81
32 82
32 83
32 87
32 88
32 89
32 90
32 91
32 92
32 93
32 94
32 95
32 99
33 34
33 35
33 36
33 37
33 38
33 40
33 41
33 42
33 44
33 45
33 46
33 47
33 48
33 50
33 51
33 54
33 55
33 56
33 58
33 60
33 61
33 62
33 63
33 64
33 66
33 67
33 69
33 70
33 71
33 72
33 74
33 75
33 76
33 77
33 78
33 79
33 80
33 81
33 82
33 83
33 84
33 86
33 87
33 88
33 89
33 90
33 91
33 92
33 94
33 95
33 97
33 98
34 35
34 36
34 38
34 39
34 41
34 42
34 43
34 44
34 45
34 46
34 47
34 48
34 49
34 51
34 53
34 54
34 56
34 58
34 61
34 62
34 63
34 64
34 65
34 66
34 67
34 68
34 70
34 71
34 72
34 74
34 75
34 77
34 79
34 81
34 82
34 83
34 86
34 88
34 89
34 90
34 92
34 93
34 97
34 98
34 99
35 36
35 37
35 38
35 39
35 40
35 41
35 42
35 43
35 44
35 45
35 46
35 47
35 48
35 49
35 50
35 51
35 54
35 58
35 59
35 60
35 61
35 62
35 63
35 64
35 65
35 66
35 67
35 68
35 69
35 70
35 71
35 74
35 75
35 76
35 78
35 79
35 80
35 81
35 82
35 83
35 86
35 87
35 88
35 89
35 90
35 93
35 95
35 96
35 97
35 98
36 37
36 39
36 40
36 41
36 42
36 43
36 44
36 45
36 47
36 48
36 49
36 51
36 52
36 55
36 56
36 58
36 60
36 61
36 63
36 64
36 65
36 67
36 68
36 72
36 73
36 74
36 75
36 77
36 79
36 80
36 81
36 82
36 84
36 86
36 88
36 90
36 91
36 92
36 93
36 94
36 95
36 96
36 97
36 99
37 38
37 39
37 40
37 42
37 43
37 44
37 45
37 47
37 49
37 51
37 52
37 53
37 54
37 55
37 56
37 57
37 58
37 60
37 61
37 62
37 63
37 64
37 65
37 66
37 67
37 69
37 70
37 71
37 72
37 73
37 74
37 76
37 77
37 78
37 80
37 81
37 82
37 83
37 84
37 87
37 88
37 90
37 92
37 93
37 94
37 95
37 96
37 99
38 41
38 42
38 43
38 44
38 45
38 47
38 48
38 49
38 52
38 53
38 55
38 57
38 58
38 59
38 60
38 61
38 62
38 63
38 64
38 66
38 67
38 68
38 69
38 70
38 71
38 73
38 74
38 77
38 78
38 79
38 80
38 82
38 83
38 84
38 85
38 86
38 87
38 90
38 91
38 92
38 94
38 95
38 97
38 98
38 99
39 40
39 41
39 42
39 43
39 44
39 45
39 46
39 47
39 48
39 50
39 51
39 52
39 54
39 56
39 57
39 58
39 59
39 60
39 61
39 62
39 63
39 64
39 65
39 68
39 70
39 71
39 73
39 74
39 75
39 77
39 78
39 79
39 80
39 81
39 83
39 87
39 88
39 89
39 90
39 92
39 93
39 94
39 95
39 96
39 97
39 98
39 99
40 41
40 42
40 43
40 44
40 45
40 46
40 48
40 50
40 51
40 52
40 53
40 54
40 55
40 56
40 59
40 60
40 62
40 63
40 66
40 67
40 68
40 69
40 71
40 72
40 74
40 75
40 76
40 77
40 78
40 79
40 80
40 81
40 82
40 85
40 88
40 91
40 92
40 94
40 95
40 96
40 98
41 44
41 45
41 47
41 48
41 49
41 50
41 51
41 52
41 53
41 54
41 55
41 58
41 59
41 60
41 61
41 62
41 64
41 65
41 66
41 68
41 69
41 70
41 71
41 72
41 73
41 74
41 75
41 76
41 79
41 81
41 84
41 87
41 89
41 90
41 91
41 93
41 94
41 95
41 96
41 98
42 43
42 49
42 50
42 51
42 52
42 53
42 54
42 57
42 58
42 61
42 62
42 63
42 64
42 65
42 66
42 67
42 68
42 69
42 70
42 72
42 73
42 75
42 76
42 77
42 78
42 79
42 80
42 83
42 84
42 85
42 86
42 88
42 89
42 91
42 95
42 96
42 97
42 98
42 99
43 44
43 46
43 47
43 48
43 51
43 52
43 53
43 55
43 56
43 57
43 58
43 59
43 60
43 63
43 67
43 68
43 69
43 70
43 71
43 72
43 74
43 75
43 76
43 78
43 79
43 81
43 83
43 85
43 88
43 89
43 90
43 92
43 93
43 94
43 96
43 97
43 98
43 99
44 45
44 46
44 47
44 48
44 49
44 52
44 53
44 55
44 56
44 58
44 60
44 63
44 65
44 67
44 68
44 69
44 71
44 72
44 73
44 75
44 76
44 77
44 79
44 80
44 81
44 82
44 83
44 84
44 85
44 86
44 87
44 88
44 89
44 90
44 91
44 92
44 93
44 94
44 96
44 97
45 46
45 48
45 49
45 50
45 52
45 53
45 54
45 55
45 56
45 57
45 58
45 61
45 62
45 63
45 65
45 66
45 67
45 69
45 71
45 72
45 73
45 74
45 76
45 79
45 80
45 82
45 84
45 85
45 86
45 88
45 89
45 91
45 92
45 93
45 97
45 99
46 47
46 48
46 49
46 50
46 53
46 54
46 55
46 58
46 59
46 61
46 62
46 64
46 65
46 66
46 68
46 69
46 70
46 71
46 72
46 73
46 75
46 77
46 78
46 79
46 81
46 82
46 83
46 84
46 86
46 87
46 90
46 91
46 92
46 93
46 94
46 95
46 96
46 97
46 99
47 48
47 51
47 53
47 54
47 57
47 58
47 59
47 60
47 61
47 62
47 63
47 64
47 65
47 66
47 68
47 73
47 74
47 78
47 81
47 85
47 86
47 87
47 88
47 89
47 90
47 91
47 92
47 93
47 95
47 97
47 98
47 99
48 49
48 51
48 52
48 53
48 54
48 55
48 56
48 58
48 62
48 65
48 66
48 68
48 69
48 70
48 72
48 74
48 75
48 77
48 78
48 79
48 80
48 81
48 82
48 83
48 84
48 87
48 88
48 89
48 95
48 96
48 97
48 99
49 50
49 51
49 52
49 53
49 55
49 56
49 57
49 59
49 61
49 64
49 65
49 66
49 68
49 69
49 70
49 71
49 73
49 74
49 75
49 76
49 77
49 78
49 79
49 80
49 82
49 83
49 84
49 86
49 89
49 90
49 91
49 92
49 93
49 94
49 95
49 96
49 97
49 98
49 99
50 53
50 54
50 55
50 56
50 57
50 58
50 59
50 60
50 62
50 63
50 66
50 68
50 69
50 70
50 74
50 75
50 76
50 79
50 80
50 83
50 85
50 86
50 87
50 88
50 89
50 90
50 91
50 94
50 96
50 97
50 98
50 99
51 53
51 55
51 57
51 58
51 59
51 60
51 63
51 64
51 65
51 69
51 70
51 71
51 72
51 74
51 76
51 79
51 80
51 81
51 83
51 85
51 86
51 87
51 89
51 90
51 91
51 92
51 93
51 94
51 96
51 97
51 98
52 53
52 54
52 55
52 56
52 57
52 58
52 59
52 60
52 61
52 64
52 66
52 67
52 68
52 69
52 70
52 72
52 73
52 75
52 76
52 78
52 80
52 83
52 84
52 85
52 86
52 87
52 88
52 89
52 90
52 91
52 92
52 93
52 94
52 96
52 97
52 98
53 54
53 55
53 57
53 58
53 59
53 60
53 61
53 62
53 64
53 65
53 66
53 70
53 71
53 72
53 73
53 75
53 76
53 79
53 82
53 83
53 84
53 86
53 87
53 88
53 89
53 90
53 93
53 94
53 95
53 96
53 98
54 55
54 56
54 57
54 58
54 61
54 64
54 65
54 67
54 68
54 69
54 71
54 72
54 73
54 74
54 76
54 77
54 78
54 79
54 80
54 82
54 83
54 84
54 85
54 87
54 88
54 90
54 91
54 92
54 93
54 94
54 98
54 99
55 56
55 57
55 58
55 59
55 60
55 61
55 62
55 63
55 64
55 65
55 66
55 67
55 68
55 69
55 71
55 72
55 73
55 74
55 75
55 76
55 77
55 78
55 79
55 80
55 81
55 82
55 83
55 84
55 85
55 86
55 87
55 88
55 89
55 91
55 92
55 93
55 94
55 95
55 96
55 97
55 98
56 58
56 63
56 64
56 65
56 66
56 69
56 70
56 71
56 72
56 73
56 74
56 75
56 76
56 77
56 78
56 79
56 82
56 84
56 85
56 87
56 91
56 92
56 93
56 94
56 95
56 99
57 59
57 61
57 62
57 63
57 64
57 65
57 68
57 69
57 70
57 71
57 72
57 74
57 75
57 77
57 78
57 81
57 82
57 83
57 84
57 85
57 87
57 89
57 91
57 92
57 93
57 94
57 95
57 96
57 97
57 98
57 99
58 60
58 63
58 64
58 65
58 66
58 67
58 68
58 69
58 70
58 72
58 75
58 76
58 78
58 79
58 80
58 81
58 82
58 83
58 84
58 85
58 86
58 88
58 89
58 90
58 91
58 92
58 93
58 94
58 95
58 96
58 97
58 98
58 99
59 60
59 61
59 65
59 67
59 68
59 70
59 71
59 72
59 75
59 76
59 77
59 78
59 81
59 84
59 86
59 87
59 88
59 89
59 90
59 93
59 94
59 95
59 98
59 99
60 61
60 63
60 64
60 65
60 67
60 69
60 71
60 72
60 73
60 74
60 75
60 76
60 77
60 78
60 79
60 81
60 83
60 84
60 85
60 88
60 89
60 90
60 92
60 94
60 96
60 97
60 98
60 99
61 64
61 65
61 67
61 69
61 70
61 71
61 73
61 74
61 75
61 76
61 77
61 78
61 79
61 80
61 81
61 83
61 84
61 85
61 88
61 89
61 90
61 92
61 94
61 95
61 96
61 97
61 99
62 63
62 64
62 65
62 66
62 67
62 68
62 69
62 70
62 71
62 74
62 76
62 77
62 78
62 80
62 81
62 82
62 83
62 84
62 85
62 86
62 88
62 90
62 91
62 93
62 94
62 96
62 97
62 99
63 64
63 65
63 66
63 68
63 69
63 70
63 72
63 73
63 74
63 75
63 76
63 77
63 78
63 79
63 80
63 81
63 83
63 84
63 85
63 86
63 88
63 89
63 92
63 93
63 94
63 95
63 96
63 97
63 98
63 99
64 65
64 66
64 69
64 70
64 71
64 72
64 73
64 74
64 75
64 76
64 77
64 78
64 79
64 80
64 81
64 82
64 83
64 84
64 85
64 86
64 87
64 89
64 90
64 93
64 94
64 95
64 97
64 99
65 66
65 67
65 70
65 73
65 74
65 76
65 77
65 79
65 83
65 84
65 85
65 89
65 90
65 91
65 95
65 96
65 97
65 98
66 67
66 69
66 71
66 73
66 74
66 76
66 77
66 79
66 80
66 81
66 82
66 83
66 84
66 85
66 86
66 87
66 88
66 89
66 90
66 91
66 93
66 94
66 95
66 96
66 97
66 98
66 99
67 68
67 71
67 72
67 73
67 74
67 75
67 78
67 80
67 81
67 82
67 83
67 84
67 85
67 87
67 88
67 91
67 94
67 96
68 69
68 70
68 71
68 72
68 73
68 74
68 75
68 76
68 77
68 79
68 80
68 81
68 83
68 84
68 85
68 86
68 87
68 88
68 89
68 90
68 91
68 92
68 94
68 96
68 97
68 98
68 99
69 70
69 71
69 72
69 74
69 77
69 78
69 82
69 83
69 84
69 85
69 86
69 87
69 88
69 89
69 91
69 92
69 93
69 94
69 95
69 96
69 97
70 71
70 72
70 73
70 74
70 75
70 76
70 77
70 79
70 80
70 81
70 82
70 83
70 85
70 86
70 87
70 88
70 89
70 90
70 91
70 92
70 93
70 94
70 95
70 96
70 97
71 72
71 73
71 74
71 75
71 76
71 77
71 79
71 80
71 81
71 82
71 83
71 85
71 86
71 89
71 90
71 91
71 95
71 96
71 97
71 98
72 73
72 76
72 77
72 79
72 83
72 90
72 91
72 92
72 93
72 94
72 95
72 96
72 98
73 75
73 76
73 77
73 78
73 79
73 80
73 82
73 84
73 86
73 87
73 88
73 89
73 91
73 92
73 95
73 97
73 98
74 75
74 78
74 79
74 80
74 81
74 82
74 83
74 84
74 85
74 88
74 89
74 91
74 94
74 95
74 96
74 97
74 98
75 78
75 79
75 80
75 81
75 83
75 84
75 85
75 86
75 87
75 88
75 91
75 92
75 94
75 96
75 97
75 98
75 99
76 77
76 78
76 79
76 80
76 84
76 85
76 86
76 88
76 89
76 91
76 92
76 93
76 94
76 96
76 99
77 78
77 79
77 80
77 81
77 83
77 84
77 85
77 87
77 88
77 90
77 92
77 93
77 94
77 95
77 97
77 98
77 99
78 79
78 80
78 82
78 83
78 84
78 87
78 88
78 90
78 91
78 92
78 93
78 94
78 95
78 97
78 98
78 99
79 80
79 81
79 82
79 83
79 84
79 86
79 87
79 89
79 90
79 91
79 92
79 93
79 94
79 96
79 98
79 99
80 82
80 84
80 85
80 88
80 89
80 90
80 92
80 93
80 95
80 96
80 97
80 98
80 99
81 82
81 83
81 84
81 86
81 87
81 88
81 90
81 92
81 93
81 95
81 96
81 97
81 98
82 83
82 85
82 86
82 87
82 88
82 89
82 90
82 92
82 93
82 95
82 96
82 98
82 99
83 84
83 85
83 86
83 89
83 90
83 94
83 96
83 97
83 98
83 99
84 87
84 88
84 89
84 90
84 91
84 92
84 93
84 94
84 95
84 97
84 98
84 99
85 86
85 89
85 90
85 91
85 92
85 93
85 94
85 95
85 96
85 97
85 98
85 99
86 87
86 89
86 90
86 91
86 93
86 94
86 96
86 97
86 98
86 99
87 90
87 91
87 92
87 93
87 94
87 95
87 96
87 97
87 98
87 99
88 89
88 90
88 92
88 93
88 96
88 98
88 99
89 92
89 94
89 95
89 96
89 98
89 99
90 91
90 92
90 94
90 97
90 99
91 92
91 93
91 94
91 95
91 96
91 97
91 98
92 93
92 96
92 97
92 98
93 94
93 95
93 99
94 96
94 97
94 98
95 96
95 97
95 98
95 99
96 97
96 99
97 98
97 99
98 99
3 85 34 74 25
87 89 55 60 50
61 66 32 18 31
13 72 9 92 33
0 90 6 65 1
22 95 91 24 27
41 75 69 58 16
40 8 19 67 48
98 77 38 20 71
81 10 52 46 64
37 59 15 4 83
39 51 45 84 2
26 94 28 62 23
96 49 78 5 54
7 47 29 17 12
30 68 80 76 86
70 73 99 93 44
21 14 79 11 36
97 57 42 53 63
35 43 82 88 56
